20 4
91 17 58 96 91 71 97 48 68 71 110 38 93 91 33 57 61 38 37 53
97 31 60 95 105 62 101 45 62 89 107 67 85 97 7 47 44 37 30 44
82 39 53 74 90 66 92 33 58 73 92 58 87 84 18 44 41 43 12 40
79 45 49 102 101 67 93 46 69 67 81 53 83 76 29 42 42 57 23 35
